problems/csplib-prob030/BalancedAcademicCurriculumProblem-models/compact/O0/minion/model-bacp-27-solution000001.solution
language Essence 1.3

letting curr be
        function(1 --> 1, 2 --> 10, 3 --> 3, 4 --> 10, 5 --> 3, 6 --> 9, 7 --> 9, 8 --> 1, 9 --> 2, 10 --> 3, 11 --> 8,
                 12 --> 1, 13 --> 1, 14 --> 1, 15 --> 2, 16 --> 7, 17 --> 7, 18 --> 7, 19 --> 6, 20 --> 6, 21 --> 6,
                 22 --> 1, 23 --> 1, 24 --> 5, 25 --> 5, 26 --> 5, 27 --> 5, 28 --> 5, 29 --> 2, 30 --> 4, 31 --> 4,
                 32 --> 4, 33 --> 4, 34 --> 4, 35 --> 4, 36 --> 3, 37 --> 3, 38 --> 3, 39 --> 2, 40 --> 2, 41 --> 2,
                 42 --> 3, 43 --> 3, 44 --> 2, 45 --> 2, 46 --> 1, 47 --> 2, 48 --> 1, 49 --> 1, 50 --> 8)
