problems/csplib-prob030/BalancedAcademicCurriculumProblem-models/noch/O0/minion/model-bacp-27-solution000001.eprime-solution
language ESSENCE' 1.0

letting curr_Function1D be
        [1, 10, 3, 10, 3, 9, 9, 1, 2, 3, 8, 1, 1, 1, 2, 7, 7, 7, 6, 6, 6, 1, 1, 5, 5, 5, 5, 5, 2, 4, 4, 4, 4, 4, 4, 3,
         3, 3, 2, 2, 2, 3, 3, 2, 2, 1, 2, 1, 1, 8;
             int(1..50)]
